&CONTROL
  calculation='relax',
  prefix='calc',
  pseudo_dir='/storage/coda1/p-amedford6/0/shared/rich_project_chbe-medford/medford-share/data/pseudos_module/espresso/esp_pseudos_old',
  outdir='.',
  tefield=.true.,
  dipfield=.true.,
  tprnfor=.true.,
/
&SYSTEM
  ibrav=0,
  celldm(1)=1.8897261245650618d0,
  nat=50,
  ntyp=3,
  ecutwfc=36.749322474956635d00,
  ecutrho=367.49322474956637d00,
  nbnd=208,
  occupations='smearing',
  smearing='fd',
  degauss=0.0007349864494991327d00,
  nspin=2,
  starting_magnetization(1)=0.0d00,
  starting_magnetization(2)=0.0d00,
  starting_magnetization(3)=0.0d00,
  input_dft='BEEF-vdW',
  edir=3,
  emaxpos=0.9830114282611933d00,
  eopreg=0.025d00,
  eamp=0.0d00,
  nosym=.true.,
  noinv=.false.,
  nosym_evc=.false.,
  no_t_rev=.false.,
/
&ELECTRONS
  diagonalization='david',
  conv_thr=7.349864494991327e-08,
  mixing_beta=0.05d00,
  electron_maxstep=750,
/
&IONS
  ion_dynamics='ipi',
/
&CELL
  cell_dynamics='ipi',
/
CELL_PARAMETERS alat
    6.579727202290808d0     0.000000000000000d0     0.000000000000000d0
   -0.000775132442404d0     5.961596420607155d0     0.000000000000000d0
    0.000000000000000d0    -0.000000000000000d0    25.155947251439940d0
ATOMIC_SPECIES
Ti1 47.867d00 Ti.UPF
O1 15.999d00 O.UPF
F1 18.998403163d00 F.UPF
ATOMIC_POSITIONS {crystal}
Ti1      0.000123603383822d0     0.499897385958536d0     0.238512187198856d0
Ti1      0.500142521004230d0     0.250038178055688d0     0.238522014307695d0
O1       0.000095322930372d0     0.000084774873452d0     0.317452257936818d0
O1       0.500112315057126d0     0.000084209992886d0     0.290342007718641d0
O1       0.698270105622955d0     0.250236102495782d0     0.369213011426276d0
O1       0.301995368073695d0     0.249987007385122d0     0.369214717028816d0
Ti1      0.500166032655828d0     0.500174618505674d0     0.364120445888331d0
Ti1      0.000177005290889d0     0.252497254001643d0     0.370898257444975d0
O1       0.500116426968350d0     0.000134382457958d0     0.451783428459376d0
O1       0.000107052240027d0     0.000027456929373d0     0.420887395773022d0
O1       0.196336905183717d0     0.248934581095320d0     0.502860247685610d0
O1       0.803872229015429d0     0.248911573414219d0     0.502859901750002d0
Ti1      0.000111652123130d0     0.499964899183919d0     0.510178681315634d0
Ti1      0.500111864098593d0     0.250046283019746d0     0.497212247161769d0
O1       0.000088077746154d0     0.000496687808230d0     0.586022313374658d0
O1       0.500080045985961d0     0.000337024171956d0     0.555032715199845d0
O1       0.691148355727707d0     0.251244967146746d0     0.640376054236547d0
O1       0.309022282593395d0     0.251236615153203d0     0.640378004920638d0
Ti1      0.500082960909498d0     0.500519928094154d0     0.626112458403670d0
Ti1      0.000064443633654d0     0.233672937960190d0     0.638461429265125d0
O1       0.500093721748991d0     0.000084921243389d0     0.186906639369252d0
O1       0.000086377583188d0     0.000380507417594d0     0.685399955773809d0
O1       0.198268504441574d0     0.250236248865719d0     0.238667392858710d0
O1       0.801993766892314d0     0.249987153755059d0     0.238669098461250d0
Ti1      0.000123603383822d0     0.999897385958536d0     0.238512187198856d0
Ti1      0.500142521004230d0     0.750038178055688d0     0.238522014307695d0
O1       0.000095322930372d0     0.500084774873452d0     0.317452257936818d0
O1       0.500112315057126d0     0.500084209992886d0     0.290342007718641d0
O1       0.698270105622955d0     0.750236102495782d0     0.369213011426276d0
O1       0.301995368073695d0     0.749987007385122d0     0.369214717028816d0
Ti1      0.500172474052482d0     0.000277937496819d0     0.364063026124355d0
Ti1      0.000177108068316d0     0.746751211482083d0     0.370979889781517d0
O1       0.500113254088847d0     0.500112757593666d0     0.451887263655692d0
O1       0.000113149673806d0     0.499835538741210d0     0.419977704630409d0
O1       0.196340163332158d0     0.751308401440909d0     0.502853630599928d0
O1       0.803865149382114d0     0.751283482860444d0     0.502858054846958d0
Ti1      0.000104860015811d0     0.999969761195667d0     0.498125614858436d0
Ti1      0.500110687815892d0     0.749995184629919d0     0.497201506266092d0
O1       0.000101675981214d0     0.500476010624398d0     0.584432599709490d0
O1       0.500092611370476d0     0.500269448738424d0     0.554797542855182d0
O1       0.691115846434084d0     0.749775991257941d0     0.640322195983529d0
O1       0.309050313940028d0     0.749754249794816d0     0.640324418180141d0
Ti1      0.500056816947031d0     0.000415935058512d0     0.626263082596011d0
Ti1      0.000062331604228d0     0.767231052657213d0     0.638213439712794d0
O1       0.500093721748991d0     0.500084921243389d0     0.186906639369252d0
F1       0.000064628401546d0     0.500521683289909d0     0.687686545393572d0
O1       0.198268504441574d0     0.750236248865719d0     0.238667392858710d0
O1       0.801993766892315d0     0.749987153755059d0     0.238669098461250d0
O1       0.965013967430367d0     0.466741343274527d0     0.735388982833344d0
O1       0.946469589988106d0     0.436425720512122d0     0.779116217153134d0
K_POINTS automatic
4 4 1  0 0 0 
