&CONTROL
  calculation='relax',
  prefix='calc',
  pseudo_dir='/storage/coda1/p-amedford6/0/shared/rich_project_chbe-medford/medford-share/data/pseudos_module/espresso/esp_pseudos_old',
  outdir='.',
  tefield=.true.,
  dipfield=.true.,
  tprnfor=.true.,
/
&SYSTEM
  ibrav=0,
  celldm(1)=1.8897261245650618d0,
  nat=50,
  ntyp=3,
  ecutwfc=36.749322474956635d00,
  ecutrho=367.49322474956637d00,
  nbnd=207,
  occupations='smearing',
  smearing='fd',
  degauss=0.0007349864494991327d00,
  nspin=2,
  starting_magnetization(1)=0.0d00,
  starting_magnetization(2)=0.0d00,
  starting_magnetization(3)=0.0d00,
  input_dft='BEEF-vdW',
  edir=3,
  emaxpos=0.9839554423384853d00,
  eopreg=0.025d00,
  eamp=0.0d00,
  nosym=.true.,
  noinv=.false.,
  nosym_evc=.false.,
  no_t_rev=.false.,
/
&ELECTRONS
  diagonalization='david',
  conv_thr=7.349864494991327e-08,
  mixing_beta=0.05d00,
  electron_maxstep=750,
/
&IONS
  ion_dynamics='ipi',
/
&CELL
  cell_dynamics='ipi',
/
CELL_PARAMETERS alat
    6.579727202290808d0     0.000000000000000d0     0.000000000000000d0
   -0.000775132442404d0     5.961596420607155d0     0.000000000000000d0
    0.000000000000000d0    -0.000000000000000d0    25.155947251439940d0
ATOMIC_SPECIES
Ti1 47.867d00 Ti.UPF
O1 15.999d00 O.UPF
N1 14.007d00 N.UPF
ATOMIC_POSITIONS {crystal}
Ti1      0.000123603383822d0     0.499897385958536d0     0.238512187198856d0
Ti1      0.500142521004230d0     0.250038178055688d0     0.238522014307695d0
O1       0.000095322930372d0     0.000084774873452d0     0.317452257936818d0
O1       0.500112315057126d0     0.000084209992886d0     0.290342007718641d0
O1       0.698270105622955d0     0.250236102495782d0     0.369213011426276d0
O1       0.301995368073695d0     0.249987007385122d0     0.369214717028816d0
Ti1      0.500166032655828d0     0.500174618505674d0     0.364120445888331d0
Ti1      0.000177005290889d0     0.252497254001643d0     0.370898257444975d0
O1       0.500109719784847d0     0.000038137063923d0     0.450985981938127d0
O1       0.000107052240027d0     0.000027456929373d0     0.420887395773022d0
O1       0.198916646136452d0     0.250946176758496d0     0.502278425926548d0
O1       0.801275714421952d0     0.250924953490552d0     0.502278270694123d0
Ti1      0.000119656814801d0     0.499859320221183d0     0.510344510921634d0
Ti1      0.500124556511936d0     0.250244278345944d0     0.496650268194841d0
O1       0.000094831034321d0     0.999784388548143d0     0.581103348912193d0
O1       0.500085659493175d0     0.000208586849089d0     0.554749941485454d0
O1       0.688670632613505d0     0.252169435278664d0     0.640106423035500d0
O1       0.311496868259759d0     0.252154261079769d0     0.640106073659672d0
Ti1      0.500086676184504d0     0.500469477633985d0     0.625497918472252d0
Ti1      0.000064773734977d0     0.248445647514053d0     0.642426579032203d0
O1       0.500093721748991d0     0.000084921243389d0     0.186906639369252d0
O1       0.000087952467674d0     0.000928931968055d0     0.684935565067180d0
O1       0.198268504441574d0     0.250236248865719d0     0.238667392858710d0
O1       0.801993766892314d0     0.249987153755059d0     0.238669098461250d0
Ti1      0.000123603383822d0     0.999897385958536d0     0.238512187198856d0
Ti1      0.500142521004230d0     0.750038178055688d0     0.238522014307695d0
O1       0.000095322930372d0     0.500084774873452d0     0.317452257936818d0
O1       0.500112315057126d0     0.500084209992886d0     0.290342007718641d0
O1       0.698270105622955d0     0.750236102495782d0     0.369213011426276d0
O1       0.301995368073695d0     0.749987007385122d0     0.369214717028816d0
Ti1      0.500172474052482d0     0.000277937496819d0     0.364063026124355d0
Ti1      0.000177108068316d0     0.746751211482083d0     0.370979889781517d0
O1       0.500109116220380d0     0.500014940934991d0     0.450770645016065d0
O1       0.000113149673806d0     0.499835538741210d0     0.419977704630409d0
O1       0.198926772250778d0     0.748877469717187d0     0.502259852391444d0
O1       0.801266560584876d0     0.748857897316391d0     0.502260100627999d0
Ti1      0.000114413578039d0     0.999864683223595d0     0.508579974689067d0
Ti1      0.500124018412612d0     0.749609365973378d0     0.496635418105171d0
O1       0.000093992869546d0     0.499891293259332d0     0.582458666068877d0
O1       0.500094077355867d0     0.500179482335341d0     0.554047112162279d0
O1       0.688690669183349d0     0.749020440844315d0     0.640107946307329d0
O1       0.311468417608357d0     0.748995202808969d0     0.640109853432858d0
Ti1      0.500053942520110d0     0.000427420113374d0     0.626227061052265d0
Ti1      0.000063513600642d0     0.754616274233034d0     0.642443228190100d0
O1       0.500093721748991d0     0.500084921243389d0     0.186906639369252d0
N1       0.000061463656745d0     0.501020050003228d0     0.689574573548156d0
O1       0.198268504441574d0     0.750236248865719d0     0.238667392858710d0
O1       0.801993766892315d0     0.749987153755059d0     0.238669098461250d0
O1       0.965013967430367d0     0.466741343274527d0     0.737277010987928d0
O1       0.946469589988106d0     0.436425720512122d0     0.781004245307718d0
K_POINTS automatic
4 4 1  0 0 0 
